WARNING: for repeatability, setting FPU to use double precision
Reading from standard input... Use '--help' for help.
============================[ Problem Statistics ]=============================
|                                                                             |
|  Number of variables:          8000                                         |
|  Number of clauses:           67112                                         |
|  Parse time:                   0.01 s                                       |
|  Eliminated clauses:           0.01 Mb                                      |
|  Simplification time:          0.01 s                                       |
|                                                                             |
LBD Based Clause Deletion : 1
Rapid Deletion : 1
Almost Conflict : 1
Anti Exploration : 1
============================[ Search Statistics ]==============================
| Conflicts |          ORIGINAL         |          LEARNT          | Progress |
|           |    Vars  Clauses Literals |    Limit  Clauses Lit/Cl |          |
===============================================================================
===============================================================================
restarts              : 1
conflicts             : 8              (320 /sec)
decisions             : 158            (0.00 % random) (6322 /sec)
propagations          : 7632           (305390 /sec)
conflict literals     : 41             (2.38 % deleted)
actual reward         : 0.071736
Memory used           : 11.00 MB
CPU time              : 0.024991 s

UNSATISFIABLE
